%Chk = host_guest.chk
%Mem = 50GB
%NProcShared = 12
# B3LYP 6-31G(d,p)   INTEGRAL=(GRID=ULTRAFINE) POP(CHELPG, REGULAR) IOP(6/33=2) SCRF=PCM
 
Gaussian Input File
 
0 1
C 0 14.481  2.585  4.559
H 0 13.480  2.311  4.913
H 0 14.490  2.284  3.504
O 0 14.685  3.900  4.704
H 0 14.582  4.223  3.792
C 0 15.496  1.799  5.285
H 0 16.508  2.155  5.059
H 0 15.327  1.952  6.358
C 0 15.310  0.291  5.016
H 0 16.083 -0.195  5.624
H 0 14.333  0.101  5.476
C 0 15.272 -0.325  3.579
H 0 16.191 -0.344  2.981
H 0 14.571  0.164  2.893
H 0 15.070 -1.394  3.721
C 0 19.035  3.360  8.745
H 0 20.111  3.609  8.708
O 0 18.499  3.184  7.412
C 0 18.932  2.006  9.442
H 0 19.345  2.136 10.445
O 0 19.757  1.122  8.638
H 0 19.974  0.405  9.237
C 0 17.481  1.616  9.470
H 0 17.179  1.372  8.449
O 0 17.296  0.475 10.324
H 0 17.624  0.657 11.208
C 0 16.556  2.676 10.070
H 0 16.525  2.669 11.161
C 0 16.827  4.102  9.563
H 0 16.439  4.218  8.549
O 0 18.340  4.356  9.534
C 0 16.275  5.250 10.402
H 0 16.823  5.349 11.342
H 0 15.268  4.930 10.680
O 0 16.198  6.415  9.604
H 0 17.061  6.794  9.422
C 0 19.260  4.085  3.449
H 0 19.797  4.346  2.520
O 0 18.102  3.263  2.924
C 0 20.368  3.357  4.238
H 0 21.237  4.001  4.388
O 0 20.857  2.256  3.455
H 0 20.116  1.985  2.908
C 0 19.859  2.856  5.535
H 0 19.159  2.042  5.338
O 0 20.999  2.348  6.289
H 0 20.681  1.927  7.090
C 0 19.203  3.854  6.308
H 0 19.941  4.499  6.788
C 0 18.170  4.648  5.475
H 0 17.340  4.062  5.076
O 0 18.799  5.247  4.311
C 0 17.552  5.799  6.225
H 0 18.183  6.690  6.226
H 0 17.441  5.670  7.303
O 0 16.280  6.159  5.739
H 0 15.767  5.349  5.768
C 0 16.441  2.026 -0.619
H 0 16.042  1.946 -1.647
O 0 15.857  0.893  0.084
C 0 17.971  1.970 -0.489
H 0 18.366  2.841 -1.017
O 0 18.326  0.799 -1.201
H 0 19.126  1.017 -1.685
C 0 18.426  1.974  0.945
H 0 18.037  1.100  1.472
O 0 19.891  2.017  0.905
H 0 20.175  1.139  0.639
C 0 17.936  3.284  1.491
H 0 18.483  4.052  0.939
C 0 16.440  3.453  1.387
H 0 16.012  2.655  1.998
O 0 16.009  3.293 -0.072
C 0 15.989  4.810  1.884
H 0 16.230  5.558  1.125
H 0 16.424  5.131  2.832
O 0 14.568  4.828  2.117
H 0 14.111  4.937  1.280
C 0 13.885 -2.613 -0.669
H 0 13.496 -3.541 -1.126
O 0 13.419 -2.418  0.649
C 0 15.420 -2.723 -0.588
H 0 15.900 -2.801 -1.566
O 0 15.757 -3.797  0.272
H 0 16.708 -3.924  0.288
C 0 15.952 -1.430  0.049
H 0 15.548 -1.272  1.051
O 0 17.403 -1.524  0.192
H 0 17.627 -0.699 -0.244
C 0 15.576 -0.233 -0.772
H 0 16.268 -0.219 -1.617
C 0 14.101 -0.214 -1.131
H 0 13.582  0.133 -0.235
O 0 13.535 -1.524 -1.574
C 0 13.778  0.799 -2.252
H 0 13.990  1.833 -1.975
H 0 12.702  0.967 -2.335
O 0 14.290  0.464 -3.583
H 0 14.003 -0.440 -3.730
C 0 10.729 -3.107  3.522
H 0  9.962 -3.538  4.190
O 0 11.152 -1.804  4.020
C 0 11.831 -4.118  3.391
H 0 11.484 -5.060  2.961
O 0 12.522 -4.246  4.641
H 0 13.450 -4.439  4.488
C 0 12.866 -3.464  2.568
H 0 13.215 -2.497  2.938
O 0 14.021 -4.381  2.433
H 0 14.692 -4.011  1.855
C 0 12.362 -3.230  1.190
H 0 12.208 -4.145  0.614
C 0 11.068 -2.374  1.128
H 0 11.370 -1.373  1.443
O 0 10.085 -2.792  2.206
C 0 10.337 -2.206 -0.215
H 0 11.085 -1.721 -0.846
H 0  9.448 -1.591 -0.059
O 0 10.047 -3.509 -0.808
H 0  9.750 -4.157 -0.165
C 0 10.064  0.795  7.151
H 0  9.462  1.482  7.773
O 0 11.467  0.983  7.502
C 0  9.656 -0.647  7.264
H 0  8.570 -0.697  7.160
O 0  9.924 -1.114  8.636
H 0 10.868 -1.034  8.790
C 0 10.369 -1.575  6.376
H 0 11.444 -1.565  6.570
O 0  9.737 -2.863  6.526
H 0 10.355 -3.552  6.783
C 0 10.234 -1.078  4.914
H 0  9.189 -1.257  4.651
C 0 10.566  0.370  4.679
H 0 11.631  0.598  4.746
O 0  9.826  1.177  5.757
C 0 10.133  0.883  3.357
H 0 10.382  0.269  2.489
H 0 10.563  1.884  3.278
O 0  8.694  0.990  3.381
H 0  8.576  1.460  4.210
C 0 14.016  2.447 10.411
H 0 14.242  2.923 11.383
O 0 15.191  2.437  9.522
C 0 13.515  1.069 10.641
H 0 12.744  1.158 11.410
O 0 14.583  0.180 11.094
H 0 15.396  0.667 10.941
C 0 12.851  0.548  9.368
H 0 13.614  0.570  8.587
O 0 12.429 -0.789  9.652
H 0 13.194 -1.336  9.849
C 0 11.665  1.425  8.849
H 0 10.777  1.251  9.459
C 0 12.195  2.882  8.702
H 0 12.898  2.954  7.870
O 0 12.872  3.276  9.896
C 0 11.139  3.902  8.394
H 0 10.828  3.794  7.353
H 0 11.618  4.850  8.648
O 0 10.003  3.666  9.285
H 0 10.389  3.373 10.113
 
